c FILE: i160-302

c SOURCE: From steinlib

c DESCRIPTION: Steinlib instance with 160 nodes and 240 edges.

p edge 160 240
e 1 3
e 1 46
e 1 69
e 1 71
e 1 120
e 1 136
e 1 145
e 1 148
e 2 46
e 3 97
e 4 54
e 5 86
e 6 75
e 6 99
e 6 106
e 6 117
e 7 99
e 8 11
e 8 130
e 9 58
e 9 73
e 9 114
e 9 132
e 10 17
e 10 78
e 10 103
e 11 36
e 11 114
e 12 75
e 13 122
e 14 49
e 14 50
e 14 84
e 14 85
e 14 99
e 14 108
e 14 123
e 14 124
e 14 140
e 14 153
e 15 136
e 15 137
e 16 29
e 16 118
e 16 135
e 17 97
e 18 23
e 18 35
e 18 87
e 18 92
e 18 125
e 19 42
e 19 113
e 19 141
e 20 45
e 20 65
e 20 80
e 20 99
e 20 139
e 20 143
e 21 100
e 21 120
e 22 146
e 22 147
e 22 159
e 23 32
e 23 44
e 23 75
e 23 96
e 24 31
e 24 35
e 24 51
e 25 46
e 26 55
e 27 57
e 27 114
e 27 129
e 28 100
e 29 45
e 29 56
e 29 67
e 29 70
e 29 80
e 29 120
e 30 45
e 30 136
e 30 144
e 31 33
e 31 63
e 32 58
e 33 38
e 33 85
e 33 155
e 34 83
e 34 92
e 36 60
e 36 88
e 37 122
e 38 102
e 38 110
e 39 47
e 39 109
e 40 114
e 41 91
e 41 141
e 41 150
e 43 62
e 43 98
e 44 113
e 44 157
e 45 75
e 46 95
e 46 103
e 47 152
e 47 156
e 48 114
e 49 89
e 49 120
e 49 131
e 50 104
e 50 152
e 50 160
e 52 67
e 52 123
e 52 154
e 53 119
e 53 132
e 54 56
e 54 93
e 54 103
e 55 159
e 56 77
e 58 128
e 59 114
e 60 121
e 61 101
e 61 131
e 62 83
e 62 132
e 63 136
e 63 138
e 64 88
e 64 127
e 64 128
e 64 141
e 64 145
e 66 74
e 66 77
e 66 97
e 66 130
e 66 142
e 68 118
e 68 124
e 68 131
e 68 147
e 70 88
e 70 113
e 70 144
e 71 147
e 71 149
e 72 78
e 72 149
e 73 87
e 73 134
e 75 94
e 76 107
e 77 143
e 77 150
e 79 92
e 79 135
e 79 155
e 80 110
e 80 116
e 80 149
e 80 156
e 81 91
e 81 99
e 82 102
e 82 104
e 82 109
e 82 127
e 84 153
e 85 96
e 85 121
e 86 127
e 87 121
e 87 132
e 87 145
e 88 123
e 89 111
e 90 149
e 91 160
e 92 98
e 92 142
e 95 122
e 96 146
e 97 158
e 99 107
e 99 126
e 99 147
e 100 140
e 100 141
e 102 123
e 103 146
e 104 131
e 105 113
e 105 155
e 106 151
e 108 125
e 110 115
e 110 148
e 111 115
e 112 117
e 112 138
e 112 159
e 114 140
e 114 159
e 115 132
e 117 132
e 117 139
e 118 158
e 119 121
e 120 130
e 122 141
e 125 156
e 127 129
e 127 139
e 128 129
e 128 156
e 129 134
e 129 137
e 129 158
e 132 147
e 133 136
e 134 142
e 136 148
e 142 146
e 145 159
e 149 152
e 151 156
